nNurses = 113;
nHours = 34;
minHours = 7;
maxHours = 20;
maxConsec = 15;
maxPresence = 27;
demand = [20, 23, 26, 30, 31, 34, 37, 39, 40, 39, 38, 42, 42, 40, 39, 44, 49, 47, 49, 44, 39, 35, 36, 36, 35, 40, 35, 39, 44, 45, 47, 48, 48, 44];
